\Problem name: compact

Minimize
OBJROW: C
Subject To
ord(0,1):  - x(0,0) + x(0,2) >= 9
ord(0,2):  x(0,1) - x(0,2) >= 9
ord(1,1):  - x(1,1) + x(1,2) >= 3
ord(1,2):  x(1,0) - x(1,2) >= 5
ord(2,1):  - x(2,0) + x(2,1) >= 9
ord(2,2):  - x(2,1) + x(2,2) >= 1
ord(3,1):  - x(3,0) + x(3,1) >= 9
ord(3,2):  - x(3,1) + x(3,2) >= 8
triangle2(0,1,0):  y(0,1,0) + y(1,0,0) = 1
triangle2(0,1,1):  y(0,1,1) + y(1,0,1) = 1
triangle2(0,1,2):  y(0,1,2) + y(1,0,2) = 1
triangle2(0,2,0):  y(0,2,0) + y(2,0,0) = 1
triangle2(0,2,1):  y(0,2,1) + y(2,0,1) = 1
triangle2(0,2,2):  y(0,2,2) + y(2,0,2) = 1
triangle2(0,3,0):  y(0,3,0) + y(3,0,0) = 1
triangle2(0,3,1):  y(0,3,1) + y(3,0,1) = 1
triangle2(0,3,2):  y(0,3,2) + y(3,0,2) = 1
triangle2(1,2,0):  y(1,2,0) + y(2,1,0) = 1
triangle2(1,2,1):  y(1,2,1) + y(2,1,1) = 1
triangle2(1,2,2):  y(1,2,2) + y(2,1,2) = 1
triangle2(1,3,0):  y(1,3,0) + y(3,1,0) = 1
triangle2(1,3,1):  y(1,3,1) + y(3,1,1) = 1
triangle2(1,3,2):  y(1,3,2) + y(3,1,2) = 1
triangle2(2,3,0):  y(2,3,0) + y(3,2,0) = 1
triangle2(2,3,1):  y(2,3,1) + y(3,2,1) = 1
triangle2(2,3,2):  y(2,3,2) + y(3,2,2) = 1
MCLinV(0,1,0):  x(0,0) - v(0,1,0) - x(1,0) = 4
MCLinV(1,0,0):  - x(0,0) - v(1,0,0) + x(1,0) = 9
MCLin1(0,1,0):  u(0,1,0) >= -0
MCLin2(0,1,0):  -67 y(1,0,0) - u(0,1,0) <= -0
MCLin3(0,1,0):  35 y(1,0,0) + v(0,1,0) - u(0,1,0) <= 35
MCLin4(0,1,0):  35 y(1,0,0) - u(0,1,0) >= -0
MCLin5(0,1,0):  -67 y(1,0,0) + v(0,1,0) - u(0,1,0) >= -67
MCLin6(1,0,0):  u(1,0,0) >= -0
MCLin7(1,0,0):  -48 y(0,1,0) - u(1,0,0) <= -0
MCLin8(1,0,0):  54 y(0,1,0) + v(1,0,0) - u(1,0,0) <= 54
MCLin9(1,0,0):  54 y(0,1,0) - u(1,0,0) >= -0
MCLin10(1,0,0):  -48 y(0,1,0) + v(1,0,0) - u(1,0,0) >= -48
MCLinV(0,1,1):  x(0,1) - v(0,1,1) - x(1,1) = 3
MCLinV(1,0,1):  - x(0,1) - v(1,0,1) + x(1,1) = 2
MCLin1(0,1,1):  u(0,1,1) >= -0
MCLin2(0,1,1):  -40 y(1,0,1) - u(0,1,1) <= -0
MCLin3(0,1,1):  62 y(1,0,1) + v(0,1,1) - u(0,1,1) <= 62
MCLin4(0,1,1):  62 y(1,0,1) - u(0,1,1) >= -0
MCLin5(0,1,1):  -40 y(1,0,1) + v(0,1,1) - u(0,1,1) >= -40
MCLin6(1,0,1):  u(1,0,1) >= -0
MCLin7(1,0,1):  -67 y(0,1,1) - u(1,0,1) <= -0
MCLin8(1,0,1):  35 y(0,1,1) + v(1,0,1) - u(1,0,1) <= 35
MCLin9(1,0,1):  35 y(0,1,1) - u(1,0,1) >= -0
MCLin10(1,0,1):  -67 y(0,1,1) + v(1,0,1) - u(1,0,1) >= -67
MCLinV(0,1,2):  x(0,2) - v(0,1,2) - x(1,2) = 5
MCLinV(1,0,2):  - x(0,2) - v(1,0,2) + x(1,2) = 9
MCLin1(0,1,2):  u(0,1,2) >= -0
MCLin2(0,1,2):  -54 y(1,0,2) - u(0,1,2) <= -0
MCLin3(0,1,2):  48 y(1,0,2) + v(0,1,2) - u(0,1,2) <= 48
MCLin4(0,1,2):  48 y(1,0,2) - u(0,1,2) >= -0
MCLin5(0,1,2):  -54 y(1,0,2) + v(0,1,2) - u(0,1,2) >= -54
MCLin6(1,0,2):  u(1,0,2) >= -0
MCLin7(1,0,2):  -62 y(0,1,2) - u(1,0,2) <= -0
MCLin8(1,0,2):  40 y(0,1,2) + v(1,0,2) - u(1,0,2) <= 40
MCLin9(1,0,2):  40 y(0,1,2) - u(1,0,2) >= -0
MCLin10(1,0,2):  -62 y(0,1,2) + v(1,0,2) - u(1,0,2) >= -62
MCLinV(0,2,0):  x(0,0) - v(0,2,0) - x(2,0) = 9
MCLinV(2,0,0):  - x(0,0) - v(2,0,0) + x(2,0) = 9
MCLin1(0,2,0):  u(0,2,0) >= -0
MCLin2(0,2,0):  -59 y(2,0,0) - u(0,2,0) <= -0
MCLin3(0,2,0):  38 y(2,0,0) + v(0,2,0) - u(0,2,0) <= 38
MCLin4(0,2,0):  38 y(2,0,0) - u(0,2,0) >= -0
MCLin5(0,2,0):  -59 y(2,0,0) + v(0,2,0) - u(0,2,0) >= -59
MCLin6(2,0,0):  u(2,0,0) >= -0
MCLin7(2,0,0):  -56 y(0,2,0) - u(2,0,0) <= -0
MCLin8(2,0,0):  41 y(0,2,0) + v(2,0,0) - u(2,0,0) <= 41
MCLin9(2,0,0):  41 y(0,2,0) - u(2,0,0) >= -0
MCLin10(2,0,0):  -56 y(0,2,0) + v(2,0,0) - u(2,0,0) >= -56
MCLinV(0,2,1):  x(0,1) - v(0,2,1) - x(2,1) = 1
MCLinV(2,0,1):  - x(0,1) - v(2,0,1) + x(2,1) = 2
MCLin1(0,2,1):  u(0,2,1) >= -0
MCLin2(0,2,1):  -42 y(2,0,1) - u(0,2,1) <= -0
MCLin3(0,2,1):  55 y(2,0,1) + v(0,2,1) - u(0,2,1) <= 55
MCLin4(0,2,1):  55 y(2,0,1) - u(0,2,1) >= -0
MCLin5(0,2,1):  -42 y(2,0,1) + v(0,2,1) - u(0,2,1) >= -42
MCLin6(2,0,1):  u(2,0,1) >= -0
MCLin7(2,0,1):  -58 y(0,2,1) - u(2,0,1) <= -0
MCLin8(2,0,1):  39 y(0,2,1) + v(2,0,1) - u(2,0,1) <= 39
MCLin9(2,0,1):  39 y(0,2,1) - u(2,0,1) >= -0
MCLin10(2,0,1):  -58 y(0,2,1) + v(2,0,1) - u(2,0,1) >= -58
MCLinV(0,2,2):  x(0,2) - v(0,2,2) - x(2,2) = 7
MCLinV(2,0,2):  - x(0,2) - v(2,0,2) + x(2,2) = 9
MCLin1(0,2,2):  u(0,2,2) >= -0
MCLin2(0,2,2):  -58 y(2,0,2) - u(0,2,2) <= -0
MCLin3(0,2,2):  39 y(2,0,2) + v(0,2,2) - u(0,2,2) <= 39
MCLin4(0,2,2):  39 y(2,0,2) - u(0,2,2) >= -0
MCLin5(0,2,2):  -58 y(2,0,2) + v(0,2,2) - u(0,2,2) >= -58
MCLin6(2,0,2):  u(2,0,2) >= -0
MCLin7(2,0,2):  -55 y(0,2,2) - u(2,0,2) <= -0
MCLin8(2,0,2):  42 y(0,2,2) + v(2,0,2) - u(2,0,2) <= 42
MCLin9(2,0,2):  42 y(0,2,2) - u(2,0,2) >= -0
MCLin10(2,0,2):  -55 y(0,2,2) + v(2,0,2) - u(2,0,2) >= -55
MCLinV(0,3,0):  x(0,0) - v(0,3,0) - x(3,0) = 9
MCLinV(3,0,0):  - x(0,0) - v(3,0,0) + x(3,0) = 9
MCLin1(0,3,0):  u(0,3,0) >= -0
MCLin2(0,3,0):  -58 y(3,0,0) - u(0,3,0) <= -0
MCLin3(0,3,0):  38 y(3,0,0) + v(0,3,0) - u(0,3,0) <= 38
MCLin4(0,3,0):  38 y(3,0,0) - u(0,3,0) >= -0
MCLin5(0,3,0):  -58 y(3,0,0) + v(0,3,0) - u(0,3,0) >= -58
MCLin6(3,0,0):  u(3,0,0) >= -0
MCLin7(3,0,0):  -56 y(0,3,0) - u(3,0,0) <= -0
MCLin8(3,0,0):  40 y(0,3,0) + v(3,0,0) - u(3,0,0) <= 40
MCLin9(3,0,0):  40 y(0,3,0) - u(3,0,0) >= -0
MCLin10(3,0,0):  -56 y(0,3,0) + v(3,0,0) - u(3,0,0) >= -56
MCLinV(0,3,1):  x(0,1) - v(0,3,1) - x(3,1) = 8
MCLinV(3,0,1):  - x(0,1) - v(3,0,1) + x(3,1) = 2
MCLin1(0,3,1):  u(0,3,1) >= -0
MCLin2(0,3,1):  -48 y(3,0,1) - u(0,3,1) <= -0
MCLin3(0,3,1):  48 y(3,0,1) + v(0,3,1) - u(0,3,1) <= 48
MCLin4(0,3,1):  48 y(3,0,1) - u(0,3,1) >= -0
MCLin5(0,3,1):  -48 y(3,0,1) + v(0,3,1) - u(0,3,1) >= -48
MCLin6(3,0,1):  u(3,0,1) >= -0
MCLin7(3,0,1):  -58 y(0,3,1) - u(3,0,1) <= -0
MCLin8(3,0,1):  38 y(0,3,1) + v(3,0,1) - u(3,0,1) <= 38
MCLin9(3,0,1):  38 y(0,3,1) - u(3,0,1) >= -0
MCLin10(3,0,1):  -58 y(0,3,1) + v(3,0,1) - u(3,0,1) >= -58
MCLinV(0,3,2):  x(0,2) - v(0,3,2) - x(3,2) = 1
MCLinV(3,0,2):  - x(0,2) - v(3,0,2) + x(3,2) = 9
MCLin1(0,3,2):  u(0,3,2) >= -0
MCLin2(0,3,2):  -58 y(3,0,2) - u(0,3,2) <= -0
MCLin3(0,3,2):  38 y(3,0,2) + v(0,3,2) - u(0,3,2) <= 38
MCLin4(0,3,2):  38 y(3,0,2) - u(0,3,2) >= -0
MCLin5(0,3,2):  -58 y(3,0,2) + v(0,3,2) - u(0,3,2) >= -58
MCLin6(3,0,2):  u(3,0,2) >= -0
MCLin7(3,0,2):  -48 y(0,3,2) - u(3,0,2) <= -0
MCLin8(3,0,2):  48 y(0,3,2) + v(3,0,2) - u(3,0,2) <= 48
MCLin9(3,0,2):  48 y(0,3,2) - u(3,0,2) >= -0
MCLin10(3,0,2):  -48 y(0,3,2) + v(3,0,2) - u(3,0,2) >= -48
MCLinV(1,2,0):  x(1,0) - v(1,2,0) - x(2,0) = 9
MCLinV(2,1,0):  - x(1,0) - v(2,1,0) + x(2,0) = 4
MCLin1(1,2,0):  u(1,2,0) >= -0
MCLin2(1,2,0):  -51 y(2,1,0) - u(1,2,0) <= -0
MCLin3(1,2,0):  54 y(2,1,0) + v(1,2,0) - u(1,2,0) <= 54
MCLin4(1,2,0):  54 y(2,1,0) - u(1,2,0) >= -0
MCLin5(1,2,0):  -51 y(2,1,0) + v(1,2,0) - u(1,2,0) >= -51
MCLin6(2,1,0):  u(2,1,0) >= -0
MCLin7(2,1,0):  -67 y(1,2,0) - u(2,1,0) <= -0
MCLin8(2,1,0):  38 y(1,2,0) + v(2,1,0) - u(2,1,0) <= 38
MCLin9(2,1,0):  38 y(1,2,0) - u(2,1,0) >= -0
MCLin10(2,1,0):  -67 y(1,2,0) + v(2,1,0) - u(2,1,0) >= -67
MCLinV(1,2,1):  x(1,1) - v(1,2,1) - x(2,1) = 1
MCLinV(2,1,1):  - x(1,1) - v(2,1,1) + x(2,1) = 3
MCLin1(1,2,1):  u(1,2,1) >= -0
MCLin2(1,2,1):  -60 y(2,1,1) - u(1,2,1) <= -0
MCLin3(1,2,1):  45 y(2,1,1) + v(1,2,1) - u(1,2,1) <= 45
MCLin4(1,2,1):  45 y(2,1,1) - u(1,2,1) >= -0
MCLin5(1,2,1):  -60 y(2,1,1) + v(1,2,1) - u(1,2,1) >= -60
MCLin6(2,1,1):  u(2,1,1) >= -0
MCLin7(2,1,1):  -49 y(1,2,1) - u(2,1,1) <= -0
MCLin8(2,1,1):  56 y(1,2,1) + v(2,1,1) - u(2,1,1) <= 56
MCLin9(2,1,1):  56 y(1,2,1) - u(2,1,1) >= -0
MCLin10(2,1,1):  -49 y(1,2,1) + v(2,1,1) - u(2,1,1) >= -49
MCLinV(1,2,2):  x(1,2) - v(1,2,2) - x(2,2) = 7
MCLinV(2,1,2):  - x(1,2) - v(2,1,2) + x(2,2) = 5
MCLin1(1,2,2):  u(1,2,2) >= -0
MCLin2(1,2,2):  -64 y(2,1,2) - u(1,2,2) <= -0
MCLin3(1,2,2):  41 y(2,1,2) + v(1,2,2) - u(1,2,2) <= 41
MCLin4(1,2,2):  41 y(2,1,2) - u(1,2,2) >= -0
MCLin5(1,2,2):  -64 y(2,1,2) + v(1,2,2) - u(1,2,2) >= -64
MCLin6(2,1,2):  u(2,1,2) >= -0
MCLin7(2,1,2):  -53 y(1,2,2) - u(2,1,2) <= -0
MCLin8(2,1,2):  52 y(1,2,2) + v(2,1,2) - u(2,1,2) <= 52
MCLin9(2,1,2):  52 y(1,2,2) - u(2,1,2) >= -0
MCLin10(2,1,2):  -53 y(1,2,2) + v(2,1,2) - u(2,1,2) >= -53
MCLinV(1,3,0):  x(1,0) - v(1,3,0) - x(3,0) = 9
MCLinV(3,1,0):  - x(1,0) - v(3,1,0) + x(3,0) = 4
MCLin1(1,3,0):  u(1,3,0) >= -0
MCLin2(1,3,0):  -50 y(3,1,0) - u(1,3,0) <= -0
MCLin3(1,3,0):  54 y(3,1,0) + v(1,3,0) - u(1,3,0) <= 54
MCLin4(1,3,0):  54 y(3,1,0) - u(1,3,0) >= -0
MCLin5(1,3,0):  -50 y(3,1,0) + v(1,3,0) - u(1,3,0) >= -50
MCLin6(3,1,0):  u(3,1,0) >= -0
MCLin7(3,1,0):  -67 y(1,3,0) - u(3,1,0) <= -0
MCLin8(3,1,0):  37 y(1,3,0) + v(3,1,0) - u(3,1,0) <= 37
MCLin9(3,1,0):  37 y(1,3,0) - u(3,1,0) >= -0
MCLin10(3,1,0):  -67 y(1,3,0) + v(3,1,0) - u(3,1,0) >= -67
MCLinV(1,3,1):  x(1,1) - v(1,3,1) - x(3,1) = 8
MCLinV(3,1,1):  - x(1,1) - v(3,1,1) + x(3,1) = 3
MCLin1(1,3,1):  u(1,3,1) >= -0
MCLin2(1,3,1):  -66 y(3,1,1) - u(1,3,1) <= -0
MCLin3(1,3,1):  38 y(3,1,1) + v(1,3,1) - u(1,3,1) <= 38
MCLin4(1,3,1):  38 y(3,1,1) - u(1,3,1) >= -0
MCLin5(1,3,1):  -66 y(3,1,1) + v(1,3,1) - u(1,3,1) >= -66
MCLin6(3,1,1):  u(3,1,1) >= -0
MCLin7(3,1,1):  -49 y(1,3,1) - u(3,1,1) <= -0
MCLin8(3,1,1):  55 y(1,3,1) + v(3,1,1) - u(3,1,1) <= 55
MCLin9(3,1,1):  55 y(1,3,1) - u(3,1,1) >= -0
MCLin10(3,1,1):  -49 y(1,3,1) + v(3,1,1) - u(3,1,1) >= -49
MCLinV(1,3,2):  x(1,2) - v(1,3,2) - x(3,2) = 1
MCLinV(3,1,2):  - x(1,2) - v(3,1,2) + x(3,2) = 5
MCLin1(1,3,2):  u(1,3,2) >= -0
MCLin2(1,3,2):  -64 y(3,1,2) - u(1,3,2) <= -0
MCLin3(1,3,2):  40 y(3,1,2) + v(1,3,2) - u(1,3,2) <= 40
MCLin4(1,3,2):  40 y(3,1,2) - u(1,3,2) >= -0
MCLin5(1,3,2):  -64 y(3,1,2) + v(1,3,2) - u(1,3,2) >= -64
MCLin6(3,1,2):  u(3,1,2) >= -0
MCLin7(3,1,2):  -46 y(1,3,2) - u(3,1,2) <= -0
MCLin8(3,1,2):  58 y(1,3,2) + v(3,1,2) - u(3,1,2) <= 58
MCLin9(3,1,2):  58 y(1,3,2) - u(3,1,2) >= -0
MCLin10(3,1,2):  -46 y(1,3,2) + v(3,1,2) - u(3,1,2) >= -46
MCLinV(2,3,0):  x(2,0) - v(2,3,0) - x(3,0) = 9
MCLinV(3,2,0):  - x(2,0) - v(3,2,0) + x(3,0) = 9
MCLin1(2,3,0):  u(2,3,0) >= -0
MCLin2(2,3,0):  -58 y(3,2,0) - u(2,3,0) <= -0
MCLin3(2,3,0):  41 y(3,2,0) + v(2,3,0) - u(2,3,0) <= 41
MCLin4(2,3,0):  41 y(3,2,0) - u(2,3,0) >= -0
MCLin5(2,3,0):  -58 y(3,2,0) + v(2,3,0) - u(2,3,0) >= -58
MCLin6(3,2,0):  u(3,2,0) >= -0
MCLin7(3,2,0):  -59 y(2,3,0) - u(3,2,0) <= -0
MCLin8(3,2,0):  40 y(2,3,0) + v(3,2,0) - u(3,2,0) <= 40
MCLin9(3,2,0):  40 y(2,3,0) - u(3,2,0) >= -0
MCLin10(3,2,0):  -59 y(2,3,0) + v(3,2,0) - u(3,2,0) >= -59
MCLinV(2,3,1):  x(2,1) - v(2,3,1) - x(3,1) = 8
MCLinV(3,2,1):  - x(2,1) - v(3,2,1) + x(3,1) = 1
MCLin1(2,3,1):  u(2,3,1) >= -0
MCLin2(2,3,1):  -57 y(3,2,1) - u(2,3,1) <= -0
MCLin3(2,3,1):  42 y(3,2,1) + v(2,3,1) - u(2,3,1) <= 42
MCLin4(2,3,1):  42 y(3,2,1) - u(2,3,1) >= -0
MCLin5(2,3,1):  -57 y(3,2,1) + v(2,3,1) - u(2,3,1) >= -57
MCLin6(3,2,1):  u(3,2,1) >= -0
MCLin7(3,2,1):  -51 y(2,3,1) - u(3,2,1) <= -0
MCLin8(3,2,1):  48 y(2,3,1) + v(3,2,1) - u(3,2,1) <= 48
MCLin9(3,2,1):  48 y(2,3,1) - u(3,2,1) >= -0
MCLin10(3,2,1):  -51 y(2,3,1) + v(3,2,1) - u(3,2,1) >= -51
MCLinV(2,3,2):  x(2,2) - v(2,3,2) - x(3,2) = 1
MCLinV(3,2,2):  - x(2,2) - v(3,2,2) + x(3,2) = 7
MCLin1(2,3,2):  u(2,3,2) >= -0
MCLin2(2,3,2):  -57 y(3,2,2) - u(2,3,2) <= -0
MCLin3(2,3,2):  42 y(3,2,2) + v(2,3,2) - u(2,3,2) <= 42
MCLin4(2,3,2):  42 y(3,2,2) - u(2,3,2) >= -0
MCLin5(2,3,2):  -57 y(3,2,2) + v(2,3,2) - u(2,3,2) >= -57
MCLin6(3,2,2):  u(3,2,2) >= -0
MCLin7(3,2,2):  -50 y(2,3,2) - u(3,2,2) <= -0
MCLin8(3,2,2):  49 y(2,3,2) + v(3,2,2) - u(3,2,2) <= 49
MCLin9(3,2,2):  49 y(2,3,2) - u(3,2,2) >= -0
MCLin10(3,2,2):  -50 y(2,3,2) + v(3,2,2) - u(3,2,2) >= -50
makespan(0):  C - x(0,1) >= 2
makespan(1):  C - x(1,0) >= 4
makespan(2):  C - x(2,2) >= 7
makespan(3):  C - x(3,2) >= 1
cut_clique_0(0123,0):  0.11111 x(0,0) + 0.11111 x(3,0) >= 1
cut_clique_0(023,0):  0.11111 x(0,0) + 0.11111 x(3,0) >= 1
cut_clique_0(012,0):  0.11111 x(0,0) + 0.11111 x(2,0) >= 1
cut_clique_0(013,0):  0.11111 x(0,0) + 0.11111 x(3,0) >= 1
cut_clique_0(123,0):  0.11111 x(2,0) + 0.11111 x(3,0) >= 1
cut_clique_0(0123,2):  0.03307 x(0,2) + 0.03256 x(2,2) + 0.00465 x(3,2) >= 1
cut_clique_0(012,2):  0.03704 x(0,2) + 0.03704 x(2,2) >= 1
cut_clique_0(023,2):  0.03307 x(0,2) + 0.03256 x(2,2) + 0.00465 x(3,2) >= 1
cut_clique_1(0123,0):  0.03704 x(0,0) + 0.03704 x(2,0) + 0.03704 x(3,0) >= 1
cut_clique_1(023,0):  0.03704 x(0,0) + 0.03704 x(2,0) + 0.03704 x(3,0) >= 1
cut_clique_2(0123,0):  0.02564 x(0,0) + 0.01140 x(1,0) + 0.02564 x(2,0) + 0.02564 x(3,0) >= 1
Bounds
 0 <= C <= 67
 0 <= x(0,0) <= 47
 0 <= y(0,1,0) <= 1
 0 <= y(1,0,0) <= 1
 -67 <= v(0,1,0) <= 35
 -48 <= v(1,0,0) <= 54
 -670 <= u(0,1,0)
 -670 <= u(1,0,0)
 0 <= y(0,2,0) <= 1
 0 <= y(2,0,0) <= 1
 -59 <= v(0,2,0) <= 38
 -56 <= v(2,0,0) <= 41
 -670 <= u(0,2,0)
 -670 <= u(2,0,0)
 0 <= y(0,3,0) <= 1
 0 <= y(3,0,0) <= 1
 -58 <= v(0,3,0) <= 38
 -56 <= v(3,0,0) <= 40
 -670 <= u(0,3,0)
 -670 <= u(3,0,0)
 8 <= x(1,0) <= 63
 0 <= y(1,2,0) <= 1
 0 <= y(2,1,0) <= 1
 -51 <= v(1,2,0) <= 54
 -67 <= v(2,1,0) <= 38
 -670 <= u(1,2,0)
 -670 <= u(2,1,0)
 0 <= y(1,3,0) <= 1
 0 <= y(3,1,0) <= 1
 -50 <= v(1,3,0) <= 54
 -67 <= v(3,1,0) <= 37
 -670 <= u(1,3,0)
 -670 <= u(3,1,0)
 0 <= x(2,0) <= 50
 0 <= y(2,3,0) <= 1
 0 <= y(3,2,0) <= 1
 -58 <= v(2,3,0) <= 41
 -59 <= v(3,2,0) <= 40
 -670 <= u(2,3,0)
 -670 <= u(3,2,0)
 0 <= x(3,0) <= 49
 18 <= x(0,1) <= 65
 0 <= y(0,1,1) <= 1
 0 <= y(1,0,1) <= 1
 -40 <= v(0,1,1) <= 62
 -67 <= v(1,0,1) <= 35
 -670 <= u(0,1,1)
 -670 <= u(1,0,1)
 0 <= y(0,2,1) <= 1
 0 <= y(2,0,1) <= 1
 -42 <= v(0,2,1) <= 55
 -58 <= v(2,0,1) <= 39
 -670 <= u(0,2,1)
 -670 <= u(2,0,1)
 0 <= y(0,3,1) <= 1
 0 <= y(3,0,1) <= 1
 -48 <= v(0,3,1) <= 48
 -58 <= v(3,0,1) <= 38
 -670 <= u(0,3,1)
 -670 <= u(3,0,1)
 0 <= x(1,1) <= 55
 0 <= y(1,2,1) <= 1
 0 <= y(2,1,1) <= 1
 -60 <= v(1,2,1) <= 45
 -49 <= v(2,1,1) <= 56
 -670 <= u(1,2,1)
 -670 <= u(2,1,1)
 0 <= y(1,3,1) <= 1
 0 <= y(3,1,1) <= 1
 -66 <= v(1,3,1) <= 38
 -49 <= v(3,1,1) <= 55
 -670 <= u(1,3,1)
 -670 <= u(3,1,1)
 9 <= x(2,1) <= 59
 0 <= y(2,3,1) <= 1
 0 <= y(3,2,1) <= 1
 -57 <= v(2,3,1) <= 42
 -51 <= v(3,2,1) <= 48
 -670 <= u(2,3,1)
 -670 <= u(3,2,1)
 9 <= x(3,1) <= 58
 9 <= x(0,2) <= 56
 0 <= y(0,1,2) <= 1
 0 <= y(1,0,2) <= 1
 -54 <= v(0,1,2) <= 48
 -62 <= v(1,0,2) <= 40
 -670 <= u(0,1,2)
 -670 <= u(1,0,2)
 0 <= y(0,2,2) <= 1
 0 <= y(2,0,2) <= 1
 -58 <= v(0,2,2) <= 39
 -55 <= v(2,0,2) <= 42
 -670 <= u(0,2,2)
 -670 <= u(2,0,2)
 0 <= y(0,3,2) <= 1
 0 <= y(3,0,2) <= 1
 -58 <= v(0,3,2) <= 38
 -48 <= v(3,0,2) <= 48
 -670 <= u(0,3,2)
 -670 <= u(3,0,2)
 3 <= x(1,2) <= 58
 0 <= y(1,2,2) <= 1
 0 <= y(2,1,2) <= 1
 -64 <= v(1,2,2) <= 41
 -53 <= v(2,1,2) <= 52
 -670 <= u(1,2,2)
 -670 <= u(2,1,2)
 0 <= y(1,3,2) <= 1
 0 <= y(3,1,2) <= 1
 -64 <= v(1,3,2) <= 40
 -46 <= v(3,1,2) <= 58
 -670 <= u(1,3,2)
 -670 <= u(3,1,2)
 10 <= x(2,2) <= 60
 0 <= y(2,3,2) <= 1
 0 <= y(3,2,2) <= 1
 -57 <= v(2,3,2) <= 42
 -50 <= v(3,2,2) <= 49
 -670 <= u(2,3,2)
 -670 <= u(3,2,2)
 17 <= x(3,2) <= 66
Integers
C x(0,0) y(0,1,0) y(1,0,0) v(0,1,0) v(1,0,0) u(0,1,0) u(1,0,0) y(0,2,0) y(2,0,0) 
v(0,2,0) v(2,0,0) u(0,2,0) u(2,0,0) y(0,3,0) y(3,0,0) v(0,3,0) v(3,0,0) u(0,3,0) u(3,0,0) 
x(1,0) y(1,2,0) y(2,1,0) v(1,2,0) v(2,1,0) u(1,2,0) u(2,1,0) y(1,3,0) y(3,1,0) v(1,3,0) 
v(3,1,0) u(1,3,0) u(3,1,0) x(2,0) y(2,3,0) y(3,2,0) v(2,3,0) v(3,2,0) u(2,3,0) u(3,2,0) 
x(3,0) x(0,1) y(0,1,1) y(1,0,1) v(0,1,1) v(1,0,1) u(0,1,1) u(1,0,1) y(0,2,1) y(2,0,1) 
v(0,2,1) v(2,0,1) u(0,2,1) u(2,0,1) y(0,3,1) y(3,0,1) v(0,3,1) v(3,0,1) u(0,3,1) u(3,0,1) 
x(1,1) y(1,2,1) y(2,1,1) v(1,2,1) v(2,1,1) u(1,2,1) u(2,1,1) y(1,3,1) y(3,1,1) v(1,3,1) 
v(3,1,1) u(1,3,1) u(3,1,1) x(2,1) y(2,3,1) y(3,2,1) v(2,3,1) v(3,2,1) u(2,3,1) u(3,2,1) 
x(3,1) x(0,2) y(0,1,2) y(1,0,2) v(0,1,2) v(1,0,2) u(0,1,2) u(1,0,2) y(0,2,2) y(2,0,2) 
v(0,2,2) v(2,0,2) u(0,2,2) u(2,0,2) y(0,3,2) y(3,0,2) v(0,3,2) v(3,0,2) u(0,3,2) u(3,0,2) 
x(1,2) y(1,2,2) y(2,1,2) v(1,2,2) v(2,1,2) u(1,2,2) u(2,1,2) y(1,3,2) y(3,1,2) v(1,3,2) 
v(3,1,2) u(1,3,2) u(3,1,2) x(2,2) y(2,3,2) y(3,2,2) v(2,3,2) v(3,2,2) u(2,3,2) u(3,2,2) 
x(3,2) 
End
